sat
(model 
  (define-fun inv ((x!0 Int)) Bool
    (let ((a!1 (ite (<= 0 x!0)
                    (ite (<= 99 x!0) (ite (<= 100 x!0) 100 99) 0)
                    (- 1))))
      (or (= a!1 100) (= a!1 0) (= a!1 99))))
)
